(set-logic QF_S)
(declare-fun var0 () String)
(assert (str.in.re var0 (re.++ (re.+ (re.+ (str.to.re "000"))) (re.++ (re.+ (re.union (str.to.re "111") (str.to.re "22"))) (re.++ (re.+ (re.* (str.to.re "3"))) (re.++ (re.* (re.union (str.to.re "444") (str.to.re "55"))) (re.++ (re.union (re.+ (str.to.re "6")) (re.+ (str.to.re "77"))) (re.++ (re.union (re.+ (str.to.re "88")) (re.+ (str.to.re "99"))) (re.++ (re.+ (re.+ (str.to.re "aa"))) (re.++ (re.union (re.* (str.to.re "bb")) (re.* (str.to.re "c"))) (re.++ (re.union (re.* (str.to.re "d")) (re.* (str.to.re "eee"))) (re.++ (re.+ (re.+ (str.to.re "fff"))) (re.++ (re.* (re.+ (str.to.re "g"))) (re.++ (re.union (re.union (str.to.re "hhh") (str.to.re "ii")) (re.union (str.to.re "jj") (str.to.re "kk"))) (re.union (re.* (str.to.re "ll")) (re.* (str.to.re "mmm")))))))))))))))))
(check-sat)